decision_x1=[0,2];
decision_x2=[0,2];
decision_x3=[0,2];
decision_x4=[0,2];
decision_x5=[0,2];
decision_x6=[0,2];
decision_x7=[0,2];
decision_x8=[0,2];
decision_x9=[0,2];
decision_x10=[0,2];
decision_x11=[0,2];
decision_x12=[0,2];
decision_x13=[0,2];
decision_x14=[0,2];
decision_x15=[0,2];
decision_x16=[0,2];
decision_x17=[0,2];
decision_x18=[0,2];
decision_x19=[0,2];
decision_x20=[0,2];
random_y1=[0,2];
random_y2=[0,2];
random_y3=[0,2];
random_y4=[0,2];
constraint_x3_x2=[
0,0,3.5|
0,1,4.2|
0,2,0.88|
1,0,6.6|
1,1,9|
1,2,6.8|
2,0,2.9|
2,1,7.3|
2,2,2|
];
constraint_x4_x1=[
0,0,9.6|
0,1,8.5|
0,2,1.5|
1,0,5.9|
1,1,3.7|
1,2,4.1|
2,0,9.8|
2,1,1|
2,2,6.9|
];
constraint_x4_x3=[
0,0,3.3|
0,1,5.6|
0,2,7.1|
1,0,6.2|
1,1,0.81|
1,2,9.9|
2,0,6.9|
2,1,4.8|
2,2,2.2|
];
constraint_x5_x2=[
0,0,8.8|
0,1,0.11|
0,2,9.2|
1,0,7.3|
1,1,3.6|
1,2,8.1|
2,0,7.6|
2,1,0.66|
2,2,2.8|
];
constraint_x6_x2=[
0,0,2.6|
0,1,8.2|
0,2,9.5|
1,0,2.5|
1,1,9.5|
1,2,4.1|
2,0,3.4|
2,1,6.3|
2,2,1.4|
];
constraint_x6_x4=[
0,0,6.6|
0,1,4.9|
0,2,7.8|
1,0,0.75|
1,1,5.8|
1,2,5.9|
2,0,9.2|
2,1,6.2|
2,2,5.3|
];
constraint_x6_x5=[
0,0,2.6|
0,1,6.4|
0,2,5.6|
1,0,2|
1,1,1.8|
1,2,6.9|
2,0,1.3|
2,1,9|
2,2,7.7|
];
constraint_x7_x2=[
0,0,4.6|
0,1,7.9|
0,2,7.2|
1,0,2.6|
1,1,9.6|
1,2,8|
2,0,8.8|
2,1,1.6|
2,2,5.7|
];
constraint_x7_x5=[
0,0,8.3|
0,1,2.6|
0,2,7.8|
1,0,5.4|
1,1,4|
1,2,3.7|
2,0,0.37|
2,1,6.9|
2,2,0.65|
];
constraint_x7_x6=[
0,0,9.7|
0,1,3.7|
0,2,0.93|
1,0,1.6|
1,1,4.3|
1,2,8.2|
2,0,2.2|
2,1,5.7|
2,2,9.2|
];
constraint_x8_x1=[
0,0,2.5|
0,1,4.9|
0,2,2.1|
1,0,0.3|
1,1,0.4|
1,2,8.2|
2,0,8.3|
2,1,4.4|
2,2,1.2|
];
constraint_x8_x2=[
0,0,7|
0,1,6.2|
0,2,8.8|
1,0,7.9|
1,1,0.43|
1,2,3.4|
2,0,5.8|
2,1,2.6|
2,2,0.87|
];
constraint_x8_x7=[
0,0,6.1|
0,1,8.4|
0,2,9.9|
1,0,8.9|
1,1,2.4|
1,2,9.1|
2,0,4.7|
2,1,1.5|
2,2,3.7|
];
constraint_x9_x1=[
0,0,9.2|
0,1,0.16|
0,2,2.8|
1,0,8.6|
1,1,6|
1,2,4.8|
2,0,3.3|
2,1,8.3|
2,2,0.84|
];
constraint_x9_x2=[
0,0,6.3|
0,1,3.3|
0,2,3|
1,0,4.3|
1,1,4.4|
1,2,6.2|
2,0,1.2|
2,1,8.6|
2,2,4.8|
];
constraint_x9_x3=[
0,0,2.2|
0,1,0.77|
0,2,6.4|
1,0,9.1|
1,1,2.9|
1,2,8.4|
2,0,5.2|
2,1,2.5|
2,2,7.7|
];
constraint_x9_x7=[
0,0,9|
0,1,3.2|
0,2,0.05|
1,0,6.7|
1,1,3.2|
1,2,3|
2,0,6.9|
2,1,8.9|
2,2,7.8|
];
constraint_x9_x8=[
0,0,0.09|
0,1,2.7|
0,2,7.8|
1,0,1.9|
1,1,0.37|
1,2,9.5|
2,0,9.5|
2,1,4.1|
2,2,2.2|
];
constraint_x10_x2=[
0,0,2.2|
0,1,0.92|
0,2,8.9|
1,0,3.6|
1,1,3.4|
1,2,7.7|
2,0,8.4|
2,1,9.3|
2,2,1.4|
];
constraint_x10_x3=[
0,0,7.5|
0,1,0.39|
0,2,7.4|
1,0,0.91|
1,1,2.7|
1,2,3.8|
2,0,2.2|
2,1,5.5|
2,2,2.5|
];
constraint_x10_x4=[
0,0,0.47|
0,1,1.6|
0,2,7.7|
1,0,9.7|
1,1,4.3|
1,2,9.2|
2,0,9.1|
2,1,6.6|
2,2,2|
];
constraint_x11_x4=[
0,0,2.3|
0,1,6.1|
0,2,6.8|
1,0,3.4|
1,1,2.9|
1,2,4.1|
2,0,5.7|
2,1,6.8|
2,2,1.2|
];
constraint_x11_x6=[
0,0,6.3|
0,1,5.1|
0,2,6.9|
1,0,4|
1,1,7|
1,2,9.7|
2,0,3.3|
2,1,6.8|
2,2,6.3|
];
constraint_x11_x8=[
0,0,2.8|
0,1,1.5|
0,2,4.9|
1,0,7.4|
1,1,9.1|
1,2,4.8|
2,0,4.8|
2,1,6.1|
2,2,1.4|
];
constraint_x11_x9=[
0,0,0.68|
0,1,2.6|
0,2,4|
1,0,2.4|
1,1,5.3|
1,2,2.7|
2,0,0.42|
2,1,7.9|
2,2,5|
];
constraint_x12_x3=[
0,0,7.4|
0,1,0.53|
0,2,7.4|
1,0,8.1|
1,1,6.5|
1,2,1.7|
2,0,7.3|
2,1,5.6|
2,2,0.6|
];
constraint_x12_x4=[
0,0,6.5|
0,1,5.2|
0,2,0.86|
1,0,5.3|
1,1,6.3|
1,2,0.97|
2,0,8.1|
2,1,5.7|
2,2,8.8|
];
constraint_x12_x5=[
0,0,0.15|
0,1,0.082|
0,2,7.9|
1,0,4.2|
1,1,1.3|
1,2,7.4|
2,0,4.3|
2,1,8|
2,2,1.8|
];
constraint_x12_x8=[
0,0,5.5|
0,1,3.2|
0,2,8.2|
1,0,5.3|
1,1,0.12|
1,2,6.5|
2,0,8.5|
2,1,7.8|
2,2,6.4|
];
constraint_x12_x11=[
0,0,6.7|
0,1,1.4|
0,2,3.8|
1,0,1.8|
1,1,9|
1,2,5.9|
2,0,2.1|
2,1,3.5|
2,2,0.78|
];
constraint_x13_x1=[
0,0,8|
0,1,7.7|
0,2,5.5|
1,0,5.7|
1,1,9|
1,2,2.6|
2,0,7.3|
2,1,3.1|
2,2,2.7|
];
constraint_x13_x4=[
0,0,3.5|
0,1,7.8|
0,2,0.79|
1,0,1.9|
1,1,5.2|
1,2,9.3|
2,0,7.4|
2,1,7.8|
2,2,0.42|
];
constraint_x13_x5=[
0,0,5|
0,1,5.1|
0,2,10|
1,0,2.3|
1,1,7.7|
1,2,7.9|
2,0,2.5|
2,1,1.6|
2,2,6.4|
];
constraint_x13_x8=[
0,0,5.9|
0,1,6.7|
0,2,2|
1,0,2.8|
1,1,7.4|
1,2,1|
2,0,4.6|
2,1,3.7|
2,2,8.7|
];
constraint_x13_x12=[
0,0,1.5|
0,1,2.1|
0,2,6.3|
1,0,3.3|
1,1,8.2|
1,2,7.9|
2,0,7.2|
2,1,9.7|
2,2,0.19|
];
constraint_x14_x1=[
0,0,9|
0,1,2.8|
0,2,9.5|
1,0,9.8|
1,1,5.4|
1,2,9.1|
2,0,3.8|
2,1,9.3|
2,2,9.2|
];
constraint_x14_x3=[
0,0,3.1|
0,1,7.7|
0,2,4.3|
1,0,0.33|
1,1,8.5|
1,2,4.5|
2,0,0.0091|
2,1,3.1|
2,2,4.1|
];
constraint_x14_x5=[
0,0,2.8|
0,1,9.5|
0,2,1.3|
1,0,4.7|
1,1,6.2|
1,2,0.96|
2,0,9.7|
2,1,5.4|
2,2,0.8|
];
constraint_x14_x6=[
0,0,2.3|
0,1,9.5|
0,2,7|
1,0,7.6|
1,1,9.4|
1,2,3.6|
2,0,0.93|
2,1,6.1|
2,2,0.43|
];
constraint_x14_x9=[
0,0,4.5|
0,1,7|
0,2,7.6|
1,0,9.3|
1,1,7.1|
1,2,3.6|
2,0,8.6|
2,1,2.6|
2,2,8.8|
];
constraint_x14_x12=[
0,0,8.4|
0,1,8.6|
0,2,7.1|
1,0,8.4|
1,1,0.88|
1,2,6.4|
2,0,7.8|
2,1,1.3|
2,2,4.8|
];
constraint_x15_x1=[
0,0,8.5|
0,1,2.2|
0,2,8.5|
1,0,9.6|
1,1,0.51|
1,2,8.3|
2,0,7.4|
2,1,5.2|
2,2,4|
];
constraint_x15_x3=[
0,0,1.8|
0,1,7.4|
0,2,0.94|
1,0,9.4|
1,1,2.2|
1,2,7.1|
2,0,7.4|
2,1,1.5|
2,2,3.9|
];
constraint_x15_x5=[
0,0,7.9|
0,1,5.1|
0,2,4.3|
1,0,8|
1,1,6|
1,2,2.6|
2,0,6.4|
2,1,3.1|
2,2,2.4|
];
constraint_x15_x12=[
0,0,2.9|
0,1,0.26|
0,2,5.2|
1,0,4.6|
1,1,5.4|
1,2,0.71|
2,0,4.1|
2,1,4.2|
2,2,4.7|
];
constraint_x16_x1=[
0,0,6.7|
0,1,9.3|
0,2,7.4|
1,0,9.4|
1,1,1.4|
1,2,9.6|
2,0,3.7|
2,1,6.7|
2,2,4|
];
constraint_x16_x2=[
0,0,5.5|
0,1,4.3|
0,2,9.4|
1,0,4.5|
1,1,8|
1,2,5.1|
2,0,4.9|
2,1,1|
2,2,0.94|
];
constraint_x16_x4=[
0,0,7.2|
0,1,6.6|
0,2,5.4|
1,0,8.5|
1,1,4.4|
1,2,8.8|
2,0,3.3|
2,1,6|
2,2,3.5|
];
constraint_x16_x6=[
0,0,6.8|
0,1,5.5|
0,2,6.5|
1,0,4.6|
1,1,6.9|
1,2,0.28|
2,0,9.4|
2,1,1.6|
2,2,9|
];
constraint_x16_x7=[
0,0,5.3|
0,1,3|
0,2,4.8|
1,0,4.6|
1,1,1.3|
1,2,2.7|
2,0,8.1|
2,1,9.2|
2,2,5.2|
];
constraint_x16_x8=[
0,0,7.5|
0,1,7.7|
0,2,3.5|
1,0,4.3|
1,1,8.1|
1,2,4.8|
2,0,0.93|
2,1,7.2|
2,2,9.2|
];
constraint_x16_x10=[
0,0,5.3|
0,1,8.2|
0,2,0.44|
1,0,2.9|
1,1,7.7|
1,2,5|
2,0,2.4|
2,1,4.8|
2,2,0.075|
];
constraint_x16_x11=[
0,0,1|
0,1,1.8|
0,2,6.3|
1,0,6.3|
1,1,2.6|
1,2,2.8|
2,0,5.8|
2,1,3.5|
2,2,2.1|
];
constraint_x16_x12=[
0,0,7|
0,1,3.5|
0,2,6.6|
1,0,8.4|
1,1,2.7|
1,2,9.5|
2,0,1.9|
2,1,1.1|
2,2,5.8|
];
constraint_x16_x15=[
0,0,6.3|
0,1,3.5|
0,2,4.3|
1,0,3.9|
1,1,0.019|
1,2,3.8|
2,0,8.8|
2,1,0.3|
2,2,0.14|
];
constraint_x17_x2=[
0,0,7.5|
0,1,2.5|
0,2,2.5|
1,0,5.3|
1,1,8.3|
1,2,1.1|
2,0,7.8|
2,1,4.4|
2,2,1.2|
];
constraint_x17_x3=[
0,0,9.9|
0,1,1.5|
0,2,8.8|
1,0,8.1|
1,1,3.9|
1,2,0.26|
2,0,6.4|
2,1,5.8|
2,2,1.2|
];
constraint_x17_x4=[
0,0,9.8|
0,1,8.2|
0,2,0.52|
1,0,3|
1,1,9.8|
1,2,8.3|
2,0,1.7|
2,1,4.2|
2,2,6.1|
];
constraint_x17_x6=[
0,0,7.4|
0,1,2.7|
0,2,2.3|
1,0,4|
1,1,5.7|
1,2,0.39|
2,0,2.6|
2,1,3|
2,2,2.2|
];
constraint_x17_x8=[
0,0,6.6|
0,1,1.3|
0,2,5.3|
1,0,8|
1,1,2.7|
1,2,6.6|
2,0,9.8|
2,1,2.1|
2,2,9.5|
];
constraint_x17_x11=[
0,0,7.6|
0,1,2|
0,2,5.2|
1,0,1.3|
1,1,7.9|
1,2,1.8|
2,0,9.8|
2,1,1.5|
2,2,7.8|
];
constraint_x17_x14=[
0,0,9.7|
0,1,9.9|
0,2,4|
1,0,8.9|
1,1,6.5|
1,2,3.1|
2,0,6.4|
2,1,8.9|
2,2,3.6|
];
constraint_x17_x15=[
0,0,6.5|
0,1,9.7|
0,2,7.6|
1,0,2|
1,1,1.2|
1,2,3|
2,0,9.8|
2,1,1.3|
2,2,8.4|
];
constraint_x17_x16=[
0,0,9.1|
0,1,5.7|
0,2,3.6|
1,0,5|
1,1,7.8|
1,2,0.095|
2,0,6.5|
2,1,2.2|
2,2,2.7|
];
constraint_x18_x1=[
0,0,6.2|
0,1,8.5|
0,2,5.2|
1,0,6.3|
1,1,0.86|
1,2,2.1|
2,0,0.048|
2,1,1.4|
2,2,5.4|
];
constraint_x18_x3=[
0,0,7.5|
0,1,5|
0,2,4.2|
1,0,6.4|
1,1,2.9|
1,2,0.096|
2,0,9.3|
2,1,0.82|
2,2,3.5|
];
constraint_x18_x8=[
0,0,2.2|
0,1,1.8|
0,2,5.6|
1,0,2.3|
1,1,9.6|
1,2,9.3|
2,0,3.8|
2,1,5.1|
2,2,5.1|
];
constraint_x18_x10=[
0,0,5.6|
0,1,7.9|
0,2,4.2|
1,0,1.1|
1,1,9.7|
1,2,3.3|
2,0,0.44|
2,1,2.6|
2,2,6|
];
constraint_x18_x11=[
0,0,3.8|
0,1,8.1|
0,2,1.3|
1,0,6.6|
1,1,9.9|
1,2,9.3|
2,0,4.5|
2,1,0.099|
2,2,1.8|
];
constraint_x18_x12=[
0,0,6.1|
0,1,8.8|
0,2,8.8|
1,0,2.3|
1,1,2.3|
1,2,4.6|
2,0,7.3|
2,1,5.8|
2,2,2|
];
constraint_x18_x13=[
0,0,2.4|
0,1,1.6|
0,2,6.6|
1,0,4|
1,1,0.16|
1,2,7.2|
2,0,4.4|
2,1,4.2|
2,2,5|
];
constraint_x18_x16=[
0,0,2.7|
0,1,9.8|
0,2,2.7|
1,0,3.9|
1,1,4.2|
1,2,4.2|
2,0,3.7|
2,1,8.7|
2,2,1.4|
];
constraint_x18_x17=[
0,0,7.1|
0,1,0.7|
0,2,1.3|
1,0,6.5|
1,1,9.4|
1,2,4.3|
2,0,1.3|
2,1,5.2|
2,2,8.7|
];
constraint_x19_x2=[
0,0,1.9|
0,1,4.5|
0,2,9.1|
1,0,2.4|
1,1,5.3|
1,2,6.6|
2,0,9.3|
2,1,7.7|
2,2,2|
];
constraint_x19_x3=[
0,0,2.6|
0,1,2.4|
0,2,0.92|
1,0,2|
1,1,0.26|
1,2,6.6|
2,0,3.5|
2,1,7.1|
2,2,1.1|
];
constraint_x19_x4=[
0,0,6.9|
0,1,9|
0,2,0.85|
1,0,7.1|
1,1,2.7|
1,2,8.3|
2,0,3.7|
2,1,0.86|
2,2,5.8|
];
constraint_x19_x5=[
0,0,5.5|
0,1,3.5|
0,2,6.1|
1,0,6.9|
1,1,9|
1,2,8.9|
2,0,1.7|
2,1,0.93|
2,2,5|
];
constraint_x19_x6=[
0,0,2.6|
0,1,4.2|
0,2,3.1|
1,0,0.011|
1,1,5.7|
1,2,3.8|
2,0,9|
2,1,6.7|
2,2,4.5|
];
constraint_x19_x11=[
0,0,8.2|
0,1,3.3|
0,2,7.2|
1,0,3.7|
1,1,6.6|
1,2,9.6|
2,0,3.9|
2,1,0.41|
2,2,6|
];
constraint_x19_x12=[
0,0,2.3|
0,1,7.1|
0,2,8.8|
1,0,3.7|
1,1,2|
1,2,8.2|
2,0,6.6|
2,1,8.6|
2,2,7.1|
];
constraint_x19_x13=[
0,0,1.2|
0,1,1.7|
0,2,7.5|
1,0,7.3|
1,1,8.5|
1,2,7.3|
2,0,0.33|
2,1,5.4|
2,2,7.5|
];
constraint_x19_x14=[
0,0,5.5|
0,1,7.5|
0,2,9.9|
1,0,0.14|
1,1,6.2|
1,2,9.6|
2,0,7.4|
2,1,2.7|
2,2,8.8|
];
constraint_x19_x16=[
0,0,7.3|
0,1,7.8|
0,2,9.7|
1,0,6.1|
1,1,3.9|
1,2,2.7|
2,0,5.1|
2,1,3.2|
2,2,0.81|
];
constraint_x19_x18=[
0,0,4.8|
0,1,6|
0,2,2|
1,0,6.9|
1,1,2.1|
1,2,7.9|
2,0,3.5|
2,1,6.1|
2,2,8.3|
];
constraint_x20_x1=[
0,0,2.2|
0,1,2.2|
0,2,5.4|
1,0,0.36|
1,1,6.7|
1,2,7|
2,0,1.2|
2,1,1.5|
2,2,2.8|
];
constraint_x20_x2=[
0,0,8.7|
0,1,2.4|
0,2,10|
1,0,2.5|
1,1,3.7|
1,2,4.3|
2,0,2|
2,1,2.8|
2,2,1.5|
];
constraint_x20_x4=[
0,0,2.8|
0,1,3.8|
0,2,4.8|
1,0,3.7|
1,1,9.9|
1,2,7.7|
2,0,2.8|
2,1,2|
2,2,3.2|
];
constraint_x20_x6=[
0,0,2.2|
0,1,5.1|
0,2,5.6|
1,0,2.1|
1,1,2.9|
1,2,4.1|
2,0,0.075|
2,1,2.9|
2,2,2.5|
];
constraint_x20_x8=[
0,0,2.3|
0,1,2.9|
0,2,4.5|
1,0,8.2|
1,1,0.44|
1,2,9.1|
2,0,0.98|
2,1,1.7|
2,2,1.4|
];
constraint_x20_x10=[
0,0,1.7|
0,1,7.1|
0,2,8.6|
1,0,8.5|
1,1,5.8|
1,2,0.68|
2,0,1.4|
2,1,8.2|
2,2,4.3|
];
constraint_x20_x11=[
0,0,0.13|
0,1,1.3|
0,2,4.1|
1,0,8.6|
1,1,8.3|
1,2,8.8|
2,0,2.4|
2,1,3.1|
2,2,5.5|
];
constraint_x20_x13=[
0,0,2.8|
0,1,8.2|
0,2,2.9|
1,0,2|
1,1,7.9|
1,2,0.34|
2,0,4.8|
2,1,3.5|
2,2,4.6|
];
constraint_x20_x14=[
0,0,9.3|
0,1,2.9|
0,2,7.5|
1,0,9.5|
1,1,5.4|
1,2,4.1|
2,0,6.9|
2,1,0.88|
2,2,3.4|
];
constraint_x20_x15=[
0,0,3.1|
0,1,4.2|
0,2,8|
1,0,8.6|
1,1,9.4|
1,2,3.9|
2,0,1.9|
2,1,2.5|
2,2,8.7|
];
constraint_x20_x17=[
0,0,7.4|
0,1,2|
0,2,9.2|
1,0,0.47|
1,1,6.7|
1,2,7.4|
2,0,3.5|
2,1,9.4|
2,2,8.3|
];
constraint_x1_y1=[
0,0,3.9|
0,1,10|
0,2,3.7|
1,0,2.6|
1,1,2.7|
1,2,2.6|
2,0,8.8|
2,1,5.5|
2,2,6.7|
];
constraint_x2_y2=[
0,0,7|
0,1,8.3|
0,2,3.2|
1,0,3.2|
1,1,0.65|
1,2,0.3|
2,0,2.3|
2,1,8.2|
2,2,5.3|
];
constraint_x3_y3=[
0,0,4.7|
0,1,1|
0,2,1.3|
1,0,2.2|
1,1,6.3|
1,2,7.9|
2,0,2|
2,1,0.56|
2,2,1.1|
];
constraint_x4_y4=[
0,0,10|
0,1,5.4|
0,2,6.6|
1,0,7.9|
1,1,4|
1,2,3.4|
2,0,9.7|
2,1,0.79|
2,2,1.8|
];
initial_distribution_y1=[0.063,0.54,0.4];
initial_distribution_y2=[0.57,0.36,0.068];
initial_distribution_y3=[0.11,0.56,0.34];
initial_distribution_y4=[0.33,0.4,0.28];
transition_y1=[
0.25,0.53,0.22|
0.083,0.37,0.55|
0.49,0.29,0.22|
];
transition_y2=[
0.43,0.24,0.32|
0.31,0.3,0.39|
0.39,0.4,0.21|
];
transition_y3=[
0.48,0.23,0.3|
0.12,0.81,0.075|
0.25,0.38,0.37|
];
transition_y4=[
0.63,0.038,0.34|
0.43,0.33,0.24|
0.4,0.058,0.54|
];
